c ---- [ banner ] ------------------------------------------------------------
c
c Kissat SAT Solver
c 
c Copyright (c) 2021-2024 Armin Biere University of Freiburg
c Copyright (c) 2019-2021 Armin Biere Johannes Kepler University Linz
c 
c Version 4.0.1 43f02cf3e992cb44653b35e5cb26f93281552ae0
c gcc (Ubuntu 13.2.0-23ubuntu4) 13.2.0 -W -Wall -O3 -DNDEBUG
c Thu Sep 12 12:27:46 CEST 2024 Linux abryzen9 6.8.0-41-generic x86_64
c
c ---- [ parsing ] -----------------------------------------------------------
c
c opened and reading DIMACS file:
c
c   /data/artifact/AMulet2.0_artifact/exp4/cnf_compress2rs_64/64_64_U_SP_CWT_KS_GenMul_compress2rs.cnf
c
c parsed 'p cnf 39422 152887' header
c closing input after reading 2988752 bytes (3 MB)
c finished parsing after 0.03 seconds
c
c ---- [ options ] -----------------------------------------------------------
c
c --stable=0                       (different from default '1')
c
c ---- [ solving ] -----------------------------------------------------------
c
c  seconds switched rate     size/glue tier1  binary           remaining
c         MB reductions conflicts size  tier2     irredundant
c          level restarts redundant glue  trail           variables
c
c *  0.03 12 0 0 0  0 0   0   0 0.0 0 0 0 0 0% 39495 113390 39419 100%
c (  0.06 13 0 0 0  0 0   0   0 0.0 0 0 0 0 0% 39495 113390 39419 100%
c .  0.08 13 0 0 0  0 0   0   0 0.0 0 0 0 0 0% 39491 113390 39419 100%
c c  0.21 23 0 0 0  0 0   0   0 0.0 0 0 0 0 0% 48349 97579 34988 89%
c d  0.23 23 0 0 0  0 0   0   0 0.0 0 0 0 0 0% 39487 97579 34988 89%
c =  0.30 23 0 0 0  0 0   0   0 0.0 0 0 0 0 0% 38451 97579 34871 88%
c d  0.31 23 0 0 0  0 0   0   0 0.0 0 0 0 0 0% 38217 97579 34871 88%
c f  0.44 22 0 0 0  0 0   0   0 0.0 0 0 0 0 0% 39650 95131 35843 91%
c e  0.61 30 0 0 0  0 0   0   0 0.0 0 0 0 0 0% 23391 103616 27000 68%
c )  0.61 30 0 0 0  0 0   0   0 0.0 0 0 0 0 0% 23391 103616 27000 68%
c {  0.65 30 0 0 0  0 0   0   0 0.0 0 0 2 6 0% 23391 103616 27000 68%
c -  0.89 32 127 0 1 247 23 1000 772 1.8 7 4 3 6 17% 23467 103610 27000 68%
c -  1.32 32 188 0 2 455 33 2000 1535 3.1 14 4 3 8 24% 23528 103610 27000 68%
c c  1.47 25 236 0 2 493 33 2505 1980 2.8 12 4 3 8 23% 23553 103609 26999 68%
c d  1.48 25 236 0 2 493 33 2505 1979 2.8 12 4 3 8 23% 23551 103609 26999 68%
c u  1.51 25 236 0 2 493 33 2505 1414 2.8 12 4 3 8 23% 23556 103609 26999 68%
c v  1.54 25 236 0 2 493 33 2505 1258 2.8 12 4 3 8 23% 23556 103609 26999 68%
c w  1.55 25 236 0 2 493 33 2505 1252 2.8 12 4 3 8 23% 23556 103609 26999 68%
c x  1.58 27 236 0 2 493 33 2505 1251 2.8 12 4 3 8 23% 23654 103352 26999 68%
c =  1.66 27 236 0 2 493 33 2505 1251 2.8 12 4 3 8 23% 23670 103352 26991 68%
c
c  seconds   switched   rate       size/glue tier1    binary           remaining
c         MB  reductions conflicts       size  tier2      irredundant
c           level restarts    redundant    glue   trail           variables
c
c d  1.67 27 236 0 2 493 33 2505 1251 2.8 12 4 3 8 23% 23654 103352 26991 68%
c f  1.72 27 236 0 2 493 33 2505 1251 2.8 12 4 3 8 23% 24328 102145 27484 70%
c u  1.77 27 236 0 2 493 33 2505 1174 2.8 12 4 3 8 23% 24330 102145 27484 70%
c v  1.80 27 236 0 2 493 33 2505 1143 2.8 12 4 3 8 23% 24330 102145 27484 70%
c w  1.81 27 236 0 2 493 33 2505 1141 2.8 12 4 3 8 23% 24330 102145 27484 70%
c x  1.84 27 236 0 2 493 33 2505 1141 2.8 12 4 3 8 23% 24341 101927 27484 70%
c =  1.93 27 236 0 2 493 33 2505 1141 2.8 12 4 3 8 23% 24399 101927 27455 70%
c d  1.94 27 236 0 2 493 33 2505 1141 2.8 12 4 3 8 23% 24314 101927 27455 70%
c t  1.95 27 236 0 2 493 33 2505 1141 2.8 12 4 3 8 23% 24313 101927 27455 70%
c f  1.99 27 236 0 2 493 33 2505 1141 2.8 12 4 3 8 23% 24452 101692 27541 70%
c -  2.30 27 238 0 3 659 35 3415 1758 2.8 12 4 3 8 25% 24501 101692 27541 70%
c -  2.82 27 267 0 4 928 37 5147 3012 2.9 13 5 3 8 26% 24565 101689 27541 70%
c -  3.33 27 253 0 5 1092 35 7149 4243 3.1 14 5 3 7 27% 24694 101683 27541 70%
c c  3.51 27 262 0 5 1133 35 7716 4732 3.1 14 5 3 7 27% 24734 101654 27532 70%
c d  3.52 27 262 0 5 1133 35 7716 4732 3.1 14 5 3 7 27% 24701 101654 27523 70%
c u  3.58 27 262 0 5 1133 35 7716 3596 3.1 14 5 3 7 27% 24706 101654 27523 70%
c v  3.62 27 262 0 5 1133 35 7716 3297 3.1 14 5 3 7 27% 24706 101654 27523 70%
c w  3.66 27 262 0 5 1133 35 7716 3291 3.1 14 5 3 7 27% 24706 101654 27523 70%
c x  3.69 27 262 0 5 1133 35 7716 3291 3.1 14 5 3 7 27% 24718 101350 27523 70%
c =  3.85 27 262 0 5 1133 35 7716 3291 3.1 14 5 3 7 27% 25042 101350 27361 69%
c
c  seconds   switched    rate       size/glue tier1    binary           remaining
c         MB  reductions  conflicts       size  tier2      irredundant
c           level  restarts    redundant    glue   trail           variables
c
c d  3.86 27 262 0 5 1133 35 7716 3286 3.1 14 5 3 7 27% 24636 101350 27361 69%
c t  3.89 27 262 0 5 1133 35 7716 3286 3.1 14 5 3 7 27% 24615 101350 27361 69%
c f  3.95 27 262 0 5 1133 35 7716 3286 3.1 14 5 3 7 27% 25618 99806 27898 71%
c u  4.01 27 262 0 5 1133 35 7716 3085 3.1 14 5 3 7 27% 25618 99806 27898 71%
c v  4.04 27 262 0 5 1133 35 7716 3007 3.1 14 5 3 7 27% 25618 99806 27898 71%
c w  4.08 27 262 0 5 1133 35 7716 3004 3.1 14 5 3 7 27% 25618 99806 27898 71%
c x  4.12 27 262 0 5 1133 35 7716 3003 3.1 14 5 3 7 27% 25631 97444 27898 71%
c =  4.29 27 262 0 5 1133 35 7716 3003 3.1 14 5 3 7 27% 26075 97444 27676 70%
c d  4.30 27 262 0 5 1133 35 7716 2987 3.1 14 5 3 7 27% 25583 97444 27676 70%
c t  4.32 27 262 0 5 1133 35 7716 2987 3.1 14 5 3 7 27% 25578 97444 27676 70%
c f  4.39 27 262 0 5 1133 35 7716 2987 3.1 14 5 3 7 27% 25710 97258 27729 70%
c -  4.57 27 286 0 6 1191 33 9385 3753 3.0 13 4 2 6 26% 25822 97250 27729 70%
c o  4.73 27 286 0 6 1249 33 10033 4303 3.0 13 4 2 6 26% 25845 97248 27729 70%
c -  5.39 27 262 0 7 1483 32 11835 5208 3.1 15 5 2 6 27% 25923 97243 27729 70%
c s  5.57 27 261 0 7 1548 32 12524 5825 3.1 15 5 2 6 27% 25950 96606 27729 70%
c e  5.70 27 261 0 7 1548 32 12524 5825 3.1 15 5 2 6 27% 22481 99826 26038 66%
c s  5.72 27 261 0 7 1548 32 12524 5825 3.1 15 5 2 6 27% 22494 98889 26038 66%
c e  5.73 27 261 0 7 1548 32 12524 5825 3.1 15 5 2 6 27% 22479 98904 26033 66%
c ^  5.73 27 261 0 7 1548 32 12524 5825 3.1 15 5 2 6 27% 22479 98904 26033 66%
c -  6.23 27 255 0 8 1726 31 14481 6055 3.0 14 5 2 6 27% 22553 98898 26033 66%
c
c  seconds   switched    rate        size/glue tier1    binary          remaining
c         MB  reductions   conflicts       size  tier2      irredundant
c           level  restarts     redundant    glue   trail          variables
c
c d  6.50 27 254 0 8 1837 31 15804 7169 3.0 14 5 2 6 27% 22536 98897 25996 66%
c u  6.56 27 254 0 8 1837 31 15804 5873 3.0 14 5 2 6 27% 22545 98897 25996 66%
c v  6.63 27 254 0 8 1837 31 15804 5001 3.0 14 5 2 6 27% 22547 98897 25996 66%
c w  6.67 27 254 0 8 1837 31 15804 4976 3.0 14 5 2 6 27% 22547 98897 25996 66%
c x  6.71 27 254 0 8 1837 31 15804 4969 3.0 14 5 2 6 27% 22596 98610 25996 66%
c =  6.92 27 254 0 8 1837 31 15804 4969 3.0 14 5 2 6 27% 23552 98610 25518 65%
c d  6.93 27 254 0 8 1837 31 15804 4954 3.0 14 5 2 6 27% 22304 98610 25516 65%
c t  6.96 27 254 0 8 1837 31 15804 4954 3.0 14 5 2 6 27% 22288 98610 25516 65%
c f  7.04 27 254 0 8 1837 31 15804 4954 3.0 14 5 2 6 27% 22302 98534 25539 65%
c c  7.14 27 254 0 8 1837 31 15804 4954 3.0 14 5 2 6 27% 22308 98522 25537 65%
c d  7.15 27 254 0 8 1837 31 15804 4954 3.0 14 5 2 6 27% 22304 98522 25537 65%
c u  7.20 27 254 0 8 1837 31 15804 4723 3.0 14 5 2 6 27% 22306 98522 25537 65%
c v  7.24 27 254 0 8 1837 31 15804 4550 3.0 14 5 2 6 27% 22307 98522 25537 65%
c w  7.28 27 254 0 8 1837 31 15804 4530 3.0 14 5 2 6 27% 22307 98522 25537 65%
c x  7.33 27 254 0 8 1837 31 15804 4522 3.0 14 5 2 6 27% 22322 97798 25537 65%
c =  7.53 27 254 0 8 1837 31 15804 4522 3.0 14 5 2 6 27% 22906 97798 25245 64%
c d  7.54 27 254 0 8 1837 31 15804 4516 3.0 14 5 2 6 27% 22206 97798 25245 64%
c t  7.57 27 254 0 8 1837 31 15804 4516 3.0 14 5 2 6 27% 22197 97798 25245 64%
c f  7.60 27 254 0 8 1837 31 15804 4516 3.0 14 5 2 6 27% 22191 97770 25253 64%
c -  8.00 27 253 0 9 1970 30 17310 5118 3.0 14 5 2 6 27% 22241 97769 25253 64%
c
c  seconds   switched     rate        size/glue tier1    binary          remaining
c         MB   reductions   conflicts       size  tier2      irredundant
c           level   restarts     redundant    glue   trail          variables
c
c -  8.82 27 246 0 10 2360 30 20310 6880 3.0 14 5 2 6 27% 22326 97768 25253 64%
c o  8.83 27 246 0 10 2361 30 20373 6939 3.0 14 5 2 6 27% 22326 97768 25253 64%
c -  9.86 27 234 0 11 2786 30 23472 8606 3.1 15 5 2 6 28% 22414 97768 25253 64%
c s 10.14 27 226 0 11 2846 29 25039 9987 3.0 15 5 2 6 27% 22488 97276 25253 64%
c e 10.31 27 226 0 11 2846 29 25039 9987 3.0 15 5 2 6 27% 19772 102466 22588 57%
c 2 10.31 27 226 0 11 2846 29 25039 9987 3.0 15 5 2 6 27% 19770 102466 22588 57%
c s 10.34 27 226 0 11 2846 29 25039 9987 3.0 15 5 2 6 27% 20149 100425 22588 57%
c e 10.38 27 226 0 11 2846 29 25039 9987 3.0 15 5 2 6 27% 20058 100568 22534 57%
c ^ 10.38 27 226 0 11 2846 29 25039 9987 3.0 15 5 2 6 27% 20058 100568 22534 57%
c - 10.89 27 219 0 12 3026 28 26788 8373 3.0 15 5 2 6 27% 20091 100568 22534 57%
c d 10.93 27 218 0 12 3045 28 26943 8517 3.0 15 5 2 6 27% 20048 100568 22502 57%
c u 11.01 27 218 0 12 3045 28 26943 7203 3.0 15 5 2 6 27% 20064 100568 22502 57%
c v 11.09 27 218 0 12 3045 28 26943 6234 3.0 15 5 2 6 27% 20065 100568 22502 57%
c w 11.10 27 218 0 12 3045 28 26943 6231 3.0 15 5 2 6 27% 20065 100568 22502 57%
c x 11.22 27 218 0 12 3045 28 26943 6213 3.0 15 5 2 6 27% 20117 98612 22502 57%
c = 11.56 27 218 0 12 3045 28 26943 6213 3.0 15 5 2 6 27% 22425 98612 21348 54%
c d 11.58 27 218 0 12 3045 28 26943 6115 3.0 15 5 2 6 27% 20037 98612 21348 54%
c t 11.60 27 218 0 12 3045 28 26943 6115 3.0 15 5 2 6 27% 19914 98612 21348 54%
c f 11.73 27 218 0 12 3045 28 26943 6115 3.0 15 5 2 6 27% 19997 98055 21469 54%
c u 11.80 27 218 0 12 3045 28 26943 5753 3.0 15 5 2 6 27% 20000 98055 21469 54%
c
c  seconds   switched     rate        size/glue tier1    binary          remaining
c         MB   reductions   conflicts       size  tier2      irredundant
c           level   restarts     redundant    glue   trail          variables
c
c v 11.85 27 218 0 12 3045 28 26943 5495 3.0 15 5 2 6 27% 20000 98055 21469 54%
c w 11.86 27 218 0 12 3045 28 26943 5489 3.0 15 5 2 6 27% 20000 98055 21469 54%
c x 12.01 27 218 0 12 3045 28 26943 5484 3.0 15 5 2 6 27% 20026 93339 21469 54%
c = 12.32 27 218 0 12 3045 28 26943 5484 3.0 15 5 2 6 27% 21080 93339 20942 53%
c d 12.33 27 218 0 12 3045 28 26943 5445 3.0 15 5 2 6 27% 20007 93339 20942 53%
c t 12.36 27 218 0 12 3045 28 26943 5445 3.0 15 5 2 6 27% 19968 93339 20942 53%
c f 12.40 27 218 0 12 3045 28 26943 5445 3.0 15 5 2 6 27% 20000 93101 20986 53%
c - 13.11 27 220 0 13 3305 29 30254 7499 3.0 15 5 2 6 27% 20062 93101 20986 53%
c - 14.36 27 217 0 14 3762 29 33859 9610 3.1 17 6 2 6 28% 20149 93100 20986 53%
c - 14.96 27 216 0 15 3969 28 37601 11275 3.1 17 6 2 6 28% 20239 93098 20986 53%
c o 15.42 27 215 0 15 4125 28 40477 13821 3.0 17 5 2 6 28% 20293 93097 20986 53%
c d 15.75 27 214 0 15 4249 28 41277 14532 3.1 17 6 2 6 28% 20225 93097 20935 53%
c u 15.85 27 214 0 15 4249 28 41277 12472 3.1 17 6 2 6 28% 20248 93097 20935 53%
c v 15.95 27 214 0 15 4249 28 41277 11460 3.1 17 6 2 6 28% 20248 93097 20935 53%
c w 16.01 27 214 0 15 4249 28 41277 11458 3.1 17 6 2 6 28% 20248 93097 20935 53%
c x 16.11 29 214 0 15 4249 28 41277 11448 3.1 17 6 2 6 28% 20248 89623 20935 53%
c = 16.44 29 214 0 15 4249 28 41277 11448 3.1 17 6 2 6 28% 20582 89623 20768 53%
c d 16.45 29 214 0 15 4249 28 41277 11372 3.1 17 6 2 6 28% 20170 89623 20768 53%
c t 16.48 29 214 0 15 4249 28 41277 11372 3.1 17 6 2 6 28% 20132 89623 20768 53%
c f 16.51 29 214 0 15 4249 28 41277 11372 3.1 17 6 2 6 28% 20145 89557 20781 53%
c
c  seconds   switched     rate         size/glue tier1    binary          remaining
c         MB   reductions   conflicts        size  tier2      irredundant
c           level   restarts      redundant    glue   trail          variables
c
c c 16.61 29 214 0 15 4249 28 41277 11369 3.1 17 6 2 6 28% 20157 89551 20778 53%
c d 16.62 29 214 0 15 4249 28 41277 11369 3.1 17 6 2 6 28% 20151 89551 20778 53%
c u 16.70 29 214 0 15 4249 28 41277 10924 3.1 17 6 2 6 28% 20150 89551 20778 53%
c v 16.79 29 214 0 15 4249 28 41277 10150 3.1 17 6 2 6 28% 20150 89551 20778 53%
c w 16.88 29 214 0 15 4249 28 41277 10145 3.1 17 6 2 6 28% 20150 89551 20778 53%
c x 16.98 29 214 0 15 4249 28 41277 10136 3.1 17 6 2 6 28% 20152 87917 20778 53%
c = 17.29 29 214 0 15 4249 28 41277 10136 3.1 17 6 2 6 28% 20258 87917 20725 53%
c d 17.30 29 214 0 15 4249 28 41277 10126 3.1 17 6 2 6 28% 20142 87917 20725 53%
c t 17.33 29 214 0 15 4249 28 41277 10126 3.1 17 6 2 6 28% 20141 87917 20725 53%
c f 17.35 29 214 0 15 4249 28 41277 10126 3.1 17 6 2 6 28% 20144 87906 20727 53%
c - 17.43 29 213 0 16 4273 28 41475 9071 3.1 17 6 2 5 28% 20148 87906 20727 53%
c - 18.34 29 208 0 17 4610 27 45477 11266 3.1 17 6 2 5 28% 20239 87905 20727 53%
c - 19.18 29 212 0 18 4937 27 49601 13449 3.0 17 6 2 5 28% 20316 87904 20727 53%
c s 19.51 29 216 0 18 5062 26 52171 15695 3.0 17 6 2 5 27% 20370 86906 20727 53%
c e 19.69 29 216 0 18 5062 26 52171 15695 3.0 17 6 2 5 27% 15036 95597 18109 46%
c 2 19.69 29 216 0 18 5062 26 52171 15695 3.0 17 6 2 5 27% 15032 95597 18109 46%
c s 19.72 29 216 0 18 5062 26 52171 15695 3.0 17 6 2 5 27% 15139 94328 18109 46%
c e 19.76 29 216 0 18 5062 26 52171 15695 3.0 17 6 2 5 27% 14674 95003 17935 45%
c ^ 19.76 29 216 0 18 5062 26 52171 15695 3.0 17 6 2 5 27% 14674 95003 17935 45%
c - 20.22 33 214 0 19 5215 26 53844 12096 2.9 17 6 2 5 27% 14694 95003 17935 45%
c
c  seconds   switched     rate         size/glue tier1    binary          remaining
c         MB   reductions   conflicts        size  tier2      irredundant
c           level   restarts      redundant    glue   trail          variables
c
c - 21.17 33 205 0 20 5563 25 58203 14132 2.9 16 6 2 6 28% 14753 95002 17935 45%
c d 21.39 33 204 0 20 5654 25 58906 14753 2.8 16 6 2 6 28% 14740 95002 17925 45%
c u 21.49 33 204 0 20 5654 25 58906 12353 2.8 16 6 2 6 28% 14753 95002 17925 45%
c v 21.59 33 204 0 20 5654 25 58906 10837 2.8 16 6 2 6 28% 14756 95002 17925 45%
c w 21.63 33 204 0 20 5654 25 58906 10808 2.8 16 6 2 6 28% 14756 95002 17925 45%
c x 21.72 33 204 0 20 5654 25 58906 10808 2.8 16 6 2 6 28% 14760 94689 17925 45%
c = 22.11 33 204 0 20 5654 25 58906 10808 2.8 16 6 2 6 28% 15894 94689 17358 44%
c d 22.12 33 204 0 20 5654 25 58906 10572 2.8 16 6 2 6 28% 14716 94689 17358 44%
c t 22.15 33 204 0 20 5654 25 58906 10572 2.8 16 6 2 6 28% 14572 94689 17358 44%
c f 22.27 33 204 0 20 5654 25 58906 10572 2.8 16 6 2 6 28% 14996 93336 17538 44%
c u 22.37 33 204 0 20 5654 25 58906 9917 2.8 16 6 2 6 28% 15000 93336 17538 44%
c v 22.44 33 204 0 20 5654 25 58906 9527 2.8 16 6 2 6 28% 15001 93336 17538 44%
c w 22.47 33 204 0 20 5654 25 58906 9508 2.8 16 6 2 6 28% 15001 93336 17538 44%
c x 22.63 34 204 0 20 5654 25 58906 9489 2.8 16 6 2 6 28% 15036 89704 17538 44%
c = 22.92 34 204 0 20 5654 25 58906 9489 2.8 16 6 2 6 28% 15374 89704 17369 44%
c d 22.93 34 204 0 20 5654 25 58906 9456 2.8 16 6 2 6 28% 15017 89704 17369 44%
c t 22.96 34 204 0 20 5654 25 58906 9456 2.8 16 6 2 6 28% 14994 89704 17369 44%
c f 23.01 34 204 0 20 5654 25 58906 9456 2.8 16 6 2 6 28% 15034 89554 17390 44%
c - 23.86 34 196 0 21 5927 25 62675 11337 2.8 16 6 2 6 28% 15081 89554 17390 44%
c - 25.02 34 192 0 22 6379 24 67257 13872 2.7 15 6 2 6 28% 15120 89554 17390 44%
c
c  seconds   switched     rate         size/glue tier1    binary          remaining
c         MB   reductions   conflicts        size  tier2      irredundant
c           level   restarts      redundant    glue   trail          variables
c
c o 25.98 34 188 0 22 6726 24 70477 16838 2.7 16 6 2 6 28% 15145 89553 17390 44%
c - 26.35 34 187 0 23 6880 24 71948 15978 2.7 16 6 2 6 28% 15156 89553 17390 44%
c - 27.47 34 186 0 24 7312 24 76745 17747 2.7 16 6 2 6 28% 15206 89553 17390 44%
c d 28.22 34 184 0 24 7632 24 79959 20559 2.7 16 6 2 6 28% 15235 89552 17380 44%
c u 28.36 34 184 0 24 7632 24 79959 17639 2.7 16 6 2 6 28% 15249 89552 17380 44%
c v 28.50 34 184 0 24 7632 24 79959 15686 2.7 16 6 2 6 28% 15250 89552 17380 44%
c w 28.57 34 184 0 24 7632 24 79959 15686 2.7 16 6 2 6 28% 15250 89552 17380 44%
c x 28.71 34 184 0 24 7632 24 79959 15675 2.7 16 6 2 6 28% 15279 87212 17380 44%
c = 29.22 34 184 0 24 7632 24 79959 15675 2.7 16 6 2 6 28% 15863 87212 17088 43%
c d 29.23 34 184 0 24 7632 24 79959 15491 2.7 16 6 2 6 28% 15213 87212 17088 43%
c t 29.26 34 184 0 24 7632 24 79959 15491 2.7 16 6 2 6 28% 15136 87212 17088 43%
c f 29.29 34 184 0 24 7632 24 79959 15491 2.7 16 6 2 6 28% 15148 87157 17096 43%
c u 29.42 34 184 0 24 7632 24 79959 14634 2.7 16 6 2 6 28% 15157 87157 17096 43%
c v 29.52 34 184 0 24 7632 24 79959 13813 2.7 16 6 2 6 28% 15157 87157 17096 43%
c w 29.67 34 184 0 24 7632 24 79959 13774 2.7 16 6 2 6 28% 15157 87157 17096 43%
c x 29.80 34 184 0 24 7632 24 79959 13768 2.7 16 6 2 6 28% 15171 85599 17096 43%
c = 30.31 34 184 0 24 7632 24 79959 13768 2.7 16 6 2 6 28% 15489 85599 16937 43%
c d 30.32 34 184 0 24 7632 24 79959 13631 2.7 16 6 2 6 28% 15156 85599 16937 43%
c t 30.35 34 184 0 24 7632 24 79959 13631 2.7 16 6 2 6 28% 15129 85599 16937 43%
c f 30.37 34 184 0 24 7632 24 79959 13631 2.7 16 6 2 6 28% 15145 85538 16945 43%
c
c  seconds   switched     rate         size/glue tier1    binary          remaining
c         MB   reductions   conflicts        size  tier2      irredundant
c           level   restarts      redundant    glue   trail          variables
c
c - 30.78 34 182 0 25 7788 24 81644 13453 2.7 16 6 2 6 28% 15166 85537 16945 43%
c - 31.92 34 179 0 26 8236 24 86644 16101 2.6 16 6 2 6 28% 15222 85536 16945 43%
c - 32.94 34 177 0 27 8608 23 91745 18421 2.6 15 6 2 6 28% 15277 85536 16945 43%
c s 33.67 34 174 0 27 8884 23 95833 21992 2.5 15 6 2 6 28% 15320 84491 16945 43%
c e 33.85 34 174 0 27 8884 23 95833 21992 2.5 15 6 2 6 28% 11312 95725 14498 37%
c 2 33.85 34 174 0 27 8884 23 95833 21992 2.5 15 6 2 6 28% 11310 95725 14498 37%
c s 33.89 34 174 0 27 8884 23 95833 21992 2.5 15 6 2 6 28% 11397 94270 14498 37%
c e 33.93 34 174 0 27 8884 23 95833 21992 2.5 15 6 2 6 28% 11265 94532 14445 37%
c ^ 33.93 34 174 0 27 8884 23 95833 21992 2.5 15 6 2 6 28% 11265 94532 14445 37%
c - 34.17 34 173 0 28 8954 22 96942 14598 2.5 15 6 2 6 28% 11273 94532 14445 37%
c - 35.09 34 169 0 29 9377 22 102233 17101 2.5 15 6 2 6 28% 11316 94531 14445 37%
c c 35.67 34 168 0 29 9647 22 104560 19188 2.5 15 6 2 6 28% 11375 94399 14422 37%
c d 35.68 34 168 0 29 9647 22 104560 19080 2.5 15 6 2 6 28% 11329 94399 14422 37%
c u 35.79 34 168 0 29 9647 22 104560 16376 2.5 15 6 2 6 28% 11338 94399 14422 37%
c v 35.90 34 168 0 29 9647 22 104560 14413 2.5 15 6 2 6 28% 11339 94399 14422 37%
c w 35.97 34 168 0 29 9647 22 104560 14410 2.5 15 6 2 6 28% 11339 94399 14422 37%
c x 36.06 34 168 0 29 9647 22 104560 14410 2.5 15 6 2 6 28% 11341 94140 14422 37%
c = 36.54 34 168 0 29 9647 22 104560 14410 2.5 15 6 2 6 28% 11750 94095 14214 36%
c d 36.55 34 168 0 29 9647 22 104560 14223 2.5 15 6 2 6 28% 11327 94095 14214 36%
c t 36.57 34 168 0 29 9647 22 104560 14223 2.5 15 6 2 6 28% 11238 94095 14214 36%
c
c  seconds   switched     rate          size/glue tier1    binary          remaining
c         MB   reductions   conflicts         size  tier2      irredundant
c           level   restarts       redundant    glue   trail          variables
c
c f 36.72 34 168 0 29 9647 22 104560 14223 2.5 15 6 2 6 28% 11228 93893 14236 36%
c u 36.82 34 168 0 29 9647 22 104560 13492 2.5 15 6 2 6 28% 11238 93893 14236 36%
c v 36.90 34 168 0 29 9647 22 104560 13037 2.5 15 6 2 6 28% 11238 93893 14236 36%
c w 37.02 34 168 0 29 9647 22 104560 12963 2.5 15 6 2 6 28% 11238 93893 14236 36%
c x 37.11 34 168 0 29 9647 22 104560 12963 2.5 15 6 2 6 28% 11238 93842 14236 36%
c = 37.61 34 168 0 29 9647 22 104560 12963 2.5 15 6 2 6 28% 11328 93840 14191 36%
c d 37.62 34 168 0 29 9647 22 104560 12939 2.5 15 6 2 6 28% 11234 93840 14191 36%
c t 37.64 34 168 0 29 9647 22 104560 12939 2.5 15 6 2 6 28% 11233 93840 14191 36%
c f 37.68 34 168 0 29 9647 22 104560 12939 2.5 15 6 2 6 28% 11237 93817 14193 36%
c - 38.29 34 165 0 30 9925 22 107618 13921 2.5 15 6 2 6 28% 11258 93817 14193 36%
c o 38.96 34 163 0 30 10158 21 110487 16549 2.5 15 6 2 6 28% 11269 93816 14193 36%
c - 39.54 34 162 0 31 10375 21 113095 16841 2.5 15 6 2 6 28% 11279 93816 14193 36%
c - 40.46 34 159 0 32 10767 21 118662 19162 2.4 15 6 2 6 28% 11318 93813 14193 36%
c - 41.93 34 156 0 33 11353 21 124318 21079 2.5 15 6 2 6 28% 11362 93813 14193 36%
c - 43.52 34 155 0 34 11948 21 130062 23112 2.5 16 6 2 5 28% 11387 93811 14193 36%
c d 44.08 34 155 0 34 12141 21 132788 25493 2.5 16 6 2 5 28% 11371 93809 14176 36%
c u 44.25 34 155 0 34 12141 21 132788 21818 2.5 16 6 2 5 28% 11385 93809 14176 36%
c v 44.40 34 155 0 34 12141 21 132788 19201 2.5 16 6 2 5 28% 11387 93809 14176 36%
c w 44.62 34 155 0 34 12141 21 132788 18866 2.5 16 6 2 5 28% 11387 93809 14176 36%
c = 45.26 34 155 0 34 12141 21 132788 18866 2.5 16 6 2 5 28% 11561 93809 14089 36%
c
c  seconds   switched      rate          size/glue tier1    binary          remaining
c         MB   reductions    conflicts         size  tier2      irredundant
c           level   restarts        redundant    glue   trail          variables
c
c d 45.27 34 155 0 34 12141 21 132788 18721 2.5 16 6 2 5 28% 11369 93809 14088 36%
c t 45.29 34 155 0 34 12141 21 132788 18721 2.5 16 6 2 5 28% 11338 93809 14088 36%
c f 45.32 34 155 0 34 12141 21 132788 18721 2.5 16 6 2 5 28% 11340 93798 14089 36%
c c 45.39 34 155 0 34 12141 21 132788 18720 2.5 16 6 2 5 28% 11344 93790 14088 36%
c d 45.40 34 155 0 34 12141 21 132788 18720 2.5 16 6 2 5 28% 11342 93790 14088 36%
c u 45.53 34 155 0 34 12141 21 132788 17770 2.5 16 6 2 5 28% 11346 93790 14088 36%
c v 45.62 34 155 0 34 12141 21 132788 17196 2.5 16 6 2 5 28% 11347 93790 14088 36%
c w 45.79 34 155 0 34 12141 21 132788 17094 2.5 16 6 2 5 28% 11347 93790 14088 36%
c x 45.95 34 155 0 34 12141 21 132788 17045 2.5 16 6 2 5 28% 11357 89508 14088 36%
c = 46.59 34 155 0 34 12141 21 132788 17045 2.5 16 6 2 5 28% 11437 89508 14048 36%
c d 46.60 34 155 0 34 12141 21 132788 17012 2.5 16 6 2 5 28% 11352 89508 14048 36%
c t 46.62 34 155 0 34 12141 21 132788 17012 2.5 16 6 2 5 28% 11346 89508 14048 36%
c - 47.37 34 154 0 35 12406 21 135893 17736 2.5 16 6 2 5 28% 11358 89507 14048 36%
c - 48.32 34 151 0 36 12749 20 141809 20696 2.4 15 6 2 5 28% 11382 89506 14048 36%
c - 49.48 34 150 0 37 13149 20 147810 23205 2.4 15 6 2 5 28% 11415 89506 14048 36%
c - 50.45 34 149 0 38 13679 20 153892 25198 2.4 16 6 2 5 28% 11443 89506 14048 36%
c s 51.00 34 148 0 38 13996 20 157864 28857 2.4 16 6 2 5 28% 11463 89078 14048 36%
c e 51.15 34 148 0 38 13996 20 157864 28857 2.4 16 6 2 5 28% 8030 105156 11927 30%
c 2 51.15 34 148 0 38 13996 20 157864 28857 2.4 16 6 2 5 28% 8022 105156 11927 30%
c s 51.19 34 148 0 38 13996 20 157864 28857 2.4 16 6 2 5 28% 8062 102590 11927 30%
c
c  seconds   switched      rate          size/glue tier1    binary          remaining
c         MB   reductions    conflicts         size  tier2     irredundant
c           level   restarts        redundant    glue   trail          variables
c
c e 51.24 34 148 0 38 13996 20 157864 28857 2.4 16 6 2 5 28% 7942 103145 11858 30%
c ^ 51.24 34 148 0 38 13996 20 157864 28857 2.4 16 6 2 5 28% 7942 103145 11858 30%
c - 51.56 34 147 0 39 14165 20 160056 19196 2.4 16 6 2 5 28% 7953 103145 11858 30%
c o 51.61 34 148 0 39 14195 20 160709 19770 2.4 16 6 2 5 28% 7955 103144 11858 30%
c u 52.37 34 147 0 39 14664 20 164741 20498 2.4 16 7 2 5 29% 7973 103143 11858 30%
c v 52.45 34 147 0 39 14664 20 164741 18360 2.4 16 7 2 5 29% 7974 103143 11858 30%
c w 52.54 34 147 0 39 14664 20 164741 18350 2.4 16 7 2 5 29% 7974 103143 11858 30%
c x 52.64 34 147 0 39 14664 20 164741 18334 2.4 16 7 2 5 29% 7982 101357 11858 30%
c = 53.12 34 147 0 39 14664 20 164741 18334 2.4 16 7 2 5 29% 8118 101357 11790 30%
c d 53.13 34 147 0 39 14664 20 164741 18247 2.4 16 7 2 5 29% 7971 101357 11790 30%
c t 53.14 34 147 0 39 14664 20 164741 18247 2.4 16 7 2 5 29% 7884 101357 11790 30%
c f 53.29 34 147 0 39 14664 20 164741 18247 2.4 16 7 2 5 29% 7852 100947 11811 30%
c u 53.37 34 147 0 39 14664 20 164741 17600 2.4 16 7 2 5 29% 7857 100947 11811 30%
c v 53.42 34 147 0 39 14664 20 164741 17175 2.4 16 7 2 5 29% 7858 100947 11811 30%
c w 53.54 34 147 0 39 14664 20 164741 17051 2.4 16 7 2 5 29% 7858 100947 11811 30%
c x 53.62 34 147 0 39 14664 20 164741 17051 2.4 16 7 2 5 29% 7858 100885 11811 30%
c = 54.12 34 147 0 39 14664 20 164741 17051 2.4 16 7 2 5 29% 7960 100788 11750 30%
c d 54.13 34 147 0 39 14664 20 164741 17001 2.4 16 7 2 5 29% 7861 100786 11750 30%
c t 54.14 34 147 0 39 14664 20 164741 17001 2.4 16 7 2 5 29% 7858 100786 11750 30%
c - 54.34 34 146 0 40 14744 20 166301 16158 2.4 16 6 2 5 29% 7858 100786 11750 30%
c
c  seconds   switched      rate          size/glue tier1    binary          remaining
c         MB   reductions    conflicts         size  tier2     irredundant
c           level   restarts        redundant    glue   trail          variables
c
c i 54.34 34 146 0 40 14744 20 166304 16158 2.4 16 6 2 5 29% 7859 100786 11748 30%
c i 54.49 34 145 0 40 14812 19 168211 17885 2.4 16 6 2 5 29% 7867 100786 11747 30%
c - 55.10 34 145 0 41 15194 19 172626 19287 2.4 16 7 2 5 29% 7866 100785 11747 30%
c - 55.82 34 144 0 42 15590 19 179029 22126 2.4 15 7 2 5 29% 7882 100785 11747 30%
c - 56.84 34 143 0 43 16244 19 185509 24172 2.4 16 7 2 5 29% 7894 100784 11747 30%
c - 57.60 34 142 0 44 16723 19 192068 26089 2.3 16 7 2 5 29% 7902 100783 11747 30%
c i 58.60 34 141 0 44 17247 19 198274 31807 2.4 16 7 2 5 29% 7922 100783 11746 30%
c - 58.67 43 141 0 45 17290 19 198703 27857 2.4 16 7 2 5 29% 7922 100783 11746 30%
c i 58.95 43 140 0 45 17492 19 200504 29500 2.4 16 7 2 5 29% 7928 100783 11745 30%
c d 58.96 43 140 0 45 17497 19 200525 29461 2.4 16 7 2 5 29% 7934 100729 11743 30%
c d 58.96 43 140 0 45 17497 19 200525 29459 2.4 16 7 2 5 29% 7924 100729 11738 30%
c u 59.10 41 140 0 45 17497 19 200525 25453 2.4 16 7 2 5 29% 7947 100729 11738 30%
c v 59.20 41 140 0 45 17497 19 200525 22615 2.4 16 7 2 5 29% 7950 100729 11738 30%
c w 59.32 41 140 0 45 17497 19 200525 22413 2.4 16 7 2 5 29% 7950 100729 11738 30%
c = 59.86 41 140 0 45 17497 19 200525 22413 2.4 16 7 2 5 29% 8076 100654 11669 30%
c d 59.87 41 140 0 45 17497 19 200525 22258 2.4 16 7 2 5 29% 7938 100654 11669 30%
c t 59.88 41 140 0 45 17497 19 200525 22258 2.4 16 7 2 5 29% 7898 100654 11669 30%
c f 59.90 36 140 0 45 17497 19 200525 22258 2.4 16 7 2 5 29% 7902 100633 11670 30%
c u 60.05 34 140 0 45 17497 19 200525 21247 2.4 16 7 2 5 29% 7904 100633 11670 30%
c v 60.12 34 140 0 45 17497 19 200525 20595 2.4 16 7 2 5 29% 7905 100633 11670 30%
c
c  seconds   switched      rate          size/glue tier1    binary          remaining
c         MB   reductions    conflicts         size  tier2     irredundant
c           level   restarts        redundant    glue   trail          variables
c
c w 60.20 34 140 0 45 17497 19 200525 20436 2.4 16 7 2 5 29% 7905 100633 11670 30%
c x 60.28 34 140 0 45 17497 19 200525 20417 2.4 16 7 2 5 29% 7908 99924 11670 30%
c = 60.83 34 140 0 45 17497 19 200525 20417 2.4 16 7 2 5 29% 7924 99870 11658 30%
c d 60.84 34 140 0 45 17497 19 200525 20372 2.4 16 7 2 5 29% 7909 99870 11658 30%
c t 60.85 34 140 0 45 17497 19 200525 20372 2.4 16 7 2 5 29% 7908 99870 11658 30%
c i 61.33 34 139 0 45 17770 19 204656 24132 2.3 16 7 2 5 29% 7917 99868 11657 30%
c - 61.43 34 139 0 46 17820 19 205411 21907 2.3 16 7 2 5 29% 7915 99868 11657 30%
c i 61.89 34 137 0 46 18112 18 209166 25255 2.3 16 7 2 5 29% 7926 99868 11656 30%
c i 62.11 34 137 0 46 18247 18 211607 27389 2.3 16 7 2 5 29% 7941 99868 11655 30%
c - 62.17 34 137 0 47 18281 18 212194 24347 2.3 16 7 2 5 29% 7936 99868 11655 30%
c i 62.74 34 135 0 47 18713 18 218085 29700 2.3 16 7 2 5 29% 7953 99868 11654 30%
c - 62.84 34 135 0 48 18807 18 219049 26465 2.3 16 7 2 5 29% 7955 99868 11654 30%
c o 63.00 34 134 0 48 18900 18 220711 27938 2.3 16 7 2 5 29% 7966 99868 11654 30%
c - 63.57 34 132 0 49 19301 17 225978 28506 2.3 16 7 2 5 29% 7991 99868 11654 30%
c i 63.80 34 131 0 49 19494 17 228636 30858 2.3 16 7 2 5 28% 8008 99867 11653 30%
c i 63.89 34 130 0 49 19571 17 229475 31599 2.3 16 7 2 5 28% 8012 99867 11652 30%
c i 63.89 34 130 0 49 19571 17 229480 31598 2.3 16 7 2 5 28% 8014 99867 11651 30%
c - 64.25 34 129 0 50 19905 17 232979 30125 2.3 16 7 2 5 28% 8010 99867 11651 30%
c s 64.69 43 125 0 50 20266 17 239994 36132 2.3 16 7 2 5 27% 8061 98894 11651 30%
c e 64.91 41 125 0 50 20266 17 239994 36132 2.3 16 7 2 5 27% 5075 123569 9680 25%
c
c  seconds   switched      rate          size/glue tier1    binary         remaining
c         MB   reductions    conflicts         size  tier2     irredundant
c           level   restarts        redundant    glue   trail         variables
c
c 2 64.91 41 125 0 50 20266 17 239994 36132 2.3 16 7 2 5 27% 5068 123569 9680 25%
c s 64.98 41 125 0 50 20266 17 239994 36132 2.3 16 7 2 5 27% 5091 118728 9680 25%
c e 65.07 41 125 0 50 20266 17 239994 36132 2.3 16 7 2 5 27% 4905 119990 9596 24%
c ! 65.07 41 125 0 50 20266 17 239994 36132 2.3 16 7 2 5 27% 4905 119990 9596 24%
c - 65.10 41 125 0 51 20275 17 240052 19020 2.3 16 7 2 5 27% 4905 119990 9596 24%
c u 65.20 41 125 0 51 20286 17 240183 16473 2.3 16 7 2 5 27% 4916 119990 9596 24%
c v 65.24 41 125 0 51 20286 17 240183 15206 2.3 16 7 2 5 27% 4916 119990 9596 24%
c w 65.26 41 125 0 51 20286 17 240183 15098 2.3 16 7 2 5 27% 4916 119990 9596 24%
c x 65.41 42 125 0 51 20286 17 240183 15041 2.3 16 7 2 5 27% 4941 115811 9596 24%
c = 65.85 42 125 0 51 20286 17 240183 15041 2.3 16 7 2 5 27% 4987 115785 9573 24%
c d 65.86 42 125 0 51 20286 17 240183 14961 2.3 16 7 2 5 27% 4934 115785 9573 24%
c t 65.87 42 125 0 51 20286 17 240183 14961 2.3 16 7 2 5 27% 4840 115785 9573 24%
c f 65.99 37 125 0 51 20286 17 240183 14961 2.3 16 7 2 5 27% 4930 111626 9715 25%
c u 66.08 41 125 0 51 20286 17 240183 14267 2.3 16 7 2 5 27% 4933 111626 9715 25%
c v 66.10 41 125 0 51 20286 17 240183 14029 2.3 16 7 2 5 27% 4933 111626 9715 25%
c w 66.12 41 125 0 51 20286 17 240183 14000 2.3 16 7 2 5 27% 4933 111626 9715 25%
c x 66.24 41 125 0 51 20286 17 240183 13999 2.3 16 7 2 5 27% 4933 111372 9715 25%
c = 66.69 41 125 0 51 20286 17 240183 13999 2.3 16 7 2 5 27% 4935 111372 9714 25%
c d 66.70 41 125 0 51 20286 17 240183 13997 2.3 16 7 2 5 27% 4932 111372 9714 25%
c f 66.82 41 125 0 51 20286 17 240183 13997 2.3 16 7 2 5 27% 5244 110386 9748 25%
c
c  seconds   switched      rate          size/glue tier1    binary         remaining
c         MB   reductions    conflicts         size  tier2     irredundant
c           level   restarts        redundant    glue   trail         variables
c
c i 67.09 41 123 0 51 20599 16 244485 17841 2.3 15 7 2 5 27% 5253 110386 9747 25%
c - 67.28 41 122 0 52 20811 16 247193 17774 2.2 15 7 2 5 26% 5254 110386 9747 25%
c i 67.46 41 121 0 52 21052 16 250467 20737 2.2 15 7 2 5 26% 5265 110386 9746 25%
c i 67.69 41 120 0 52 21338 16 253541 23462 2.2 15 7 2 5 26% 5272 110386 9745 25%
c - 67.74 41 119 0 53 21385 16 254405 21324 2.2 15 7 2 5 26% 5266 110386 9745 25%
c i 67.82 41 118 0 53 21523 16 256156 22841 2.2 15 7 2 5 26% 5276 110386 9743 25%
c i 67.96 42 117 0 53 21704 15 259872 25953 2.2 15 7 2 5 25% 5313 110386 9742 25%
c - 68.05 42 116 0 54 21814 15 261685 23518 2.2 15 7 2 5 25% 5310 110386 9742 25%
c - 68.46 42 112 0 55 22393 15 269033 25339 2.2 15 7 2 5 24% 5335 110386 9742 25%
c i 68.72 42 110 0 55 22904 15 273413 29275 2.2 15 7 2 5 23% 5345 110385 9741 25%
c i 68.86 42 108 0 55 23136 15 275930 31528 2.2 15 7 2 5 23% 5353 110384 9740 25%
c - 68.88 42 108 0 56 23166 15 276449 27355 2.2 15 7 2 5 23% 5345 110384 9740 25%
c i 68.93 42 107 0 56 23207 14 278203 28810 2.2 15 7 2 5 22% 5361 110384 9738 25%
c i 68.96 42 106 0 56 23288 14 278996 29504 2.1 15 7 2 5 22% 5366 110384 9737 25%
c i 69.05 42 103 0 56 23349 14 282120 32196 2.1 15 7 2 5 22% 5383 110384 9736 25%
c i 69.08 42 102 0 56 23361 14 283463 33208 2.1 15 7 2 5 21% 5395 110384 9703 25%
c i 69.09 42 102 0 56 23364 14 283513 33249 2.1 15 7 2 5 21% 5397 110384 9702 25%
c i 69.09 42 102 0 56 23364 14 283549 33260 2.1 15 7 2 5 21% 5403 110384 9701 25%
c i 69.09 42 102 0 56 23364 14 283565 33269 2.1 15 7 2 5 21% 5404 110384 9700 25%
c i 69.09 42 102 0 56 23364 14 283574 33268 2.1 15 7 2 5 21% 5408 110383 9699 25%
c
c  seconds   switched      rate          size/glue tier1    binary         remaining
c         MB   reductions    conflicts         size  tier2     irredundant
c           level   restarts        redundant    glue   trail         variables
c
c } 69.09 42 102 0 56 23364 14 283586 33274 2.1 15 7 2 5 21% 5411 110382 9691 25%
c 0 69.09 42 102 0 56 23364 14 283586 33274 2.1 15 7 2 5 21% 5411 110382 9691 25%
c
c ---- [ result ] ------------------------------------------------------------
c
s UNSATISFIABLE
c
c ---- [ profiling ] ---------------------------------------------------------
c
c          46.87   67.83 %  search
c          46.87   67.83 %  focused
c          21.57   31.22 %  simplify
c          20.21   29.25 %  probe
c           9.19   13.30 %  sweep
c           7.31   10.57 %  vivify
c           1.73    2.50 %  eliminate
c           1.67    2.42 %  factor
c           1.00    1.45 %  substitute
c           0.66    0.95 %  congruence
c           0.55    0.80 %  preprocess
c           0.40    0.57 %  reduce
c           0.39    0.56 %  subsume
c           0.25    0.36 %  transitive
c           0.17    0.24 %  fastel
c           0.14    0.21 %  backbone
c           0.08    0.11 %  lucky
c           0.03    0.04 %  parse
c =============================================
c          69.09  100.00 %  total
c
c ---- [ statistics ] --------------------------------------------------------
c
c chronological:                         5897                2 %  conflicts
c conflicts:                           283586             4104.42 per second
c congruent:                             4470               11 %  variables
c decisions:                          4786525               16.88 per conflict
c eliminated:                           22795               58 %  variables
c factored:                              2792                7 %  variables
c fast_eliminated:                       8843               39 %  eliminated
c fast_strengthened:                       81                1 %  per strengthened
c fast_subsumed:                           24                0 %  per subsumed
c iterations:                              27                0 %  variables
c propagations:                     226749680          3281811    per second
c reductions:                              56             5064    interval
c reordered:                                7            40512    interval
c restarts:                             23364               12    interval
c strengthened:                         10914                0 %  checks
c substituted:                           9631               24 %  variables
c subsumed:                             16981                0 %  checks
c switched:                                 0                0    interval
c vivified:                            121783               15 %  checks
c
c ---- [ glue usage ] --------------------------------------------------------
c
c focused glue 2 used 163522 clauses 23.85% accumulated 70.49% tier1
c focused glue 3 used  78391 clauses 11.43% accumulated 81.92%
c focused glue 4 used  36917 clauses  5.38% accumulated 87.31%
c focused glue 5 used  22624 clauses  3.30% accumulated 90.61% tier2
c
c ---- [ resources ] ---------------------------------------------------------
c
c maximum-resident-set-size:         44822528 bytes         43 MB
c process-time:                          1m 9s              69.09 seconds
c
c ---- [ shutting down ] -----------------------------------------------------
c
c exit 20
